30
1
2
3
4
5
6
7
8
9
10
11
12
13
14
15
16
17
18
19
20
21
22
23
24
25
26
27
28
29
30
1 2 
1 3 
1 12 
1 13 
1 19 
2 4 
2 20 
2 23 
2 26 
3 5 
3 16 
3 22 
3 27 
4 6 
4 9
4 15
4 16 
5 7 
5 8 
5 17 
5 23 
6 8
6 19 
6 24 
6 30 
7 9
7 12 
7 18 
7 30 
8 10 
8 11 
8 20 
9 11 
9 21 
9 27 
10 12 
10 15 
10 27 
10 28 
11 13 
11 14 
11 26 
12 14 
12 24 
13 15 
13 25 
13 30 
14 16 
14 23 
14 29 
15 17 
15 22 
16 18 
16 28 
17 19 
17 26 
17 29 
18 19 
18 20 
18 25 
19 21 
20 22 
20 29 
21 22 
21 23 
21 28 
22 24 
23 25 
24 25 
24 26 
25 27 
26 28 
27 29 
28 30 
29 30